;; translated from ./conc/szymanski_safe.vmt
;; original benchmark available at: https://es-static.fbk.eu/people/griggio/ic3ia/index.html
;; author: Alberto Griggio <griggio@fbk.eu>
(set-logic HORN)
(declare-fun state (Bool Bool Bool Bool Int Bool Bool Bool Bool Int) Bool)
(assert (forall ((|thr1.location.3.next| Bool) (|thr1.location.2.next| Bool) (|thr1.location.1.next| Bool) (|thr1.flag.next| Int) (|thr1.EVENT.0| Bool) (|thr1.location.0.next| Bool) (|thr2.location.1.next| Bool) (|thr2.location.0.next| Bool) (|thr2.location.2.next| Bool) (|thr2.location.3.next| Bool) (|thr2.flag.next| Int) (|thr2.EVENT.0| Bool) (|thr2.flag| Int) (|thr2.location.3| Bool) (|thr2.location.2| Bool) (|thr2.location.0| Bool) (|thr2.location.1| Bool) (|thr1.location.3| Bool) (|thr1.location.2| Bool) (|thr1.location.1| Bool) (|thr1.location.0| Bool) (|thr1.flag| Int)) (=> (let ((.def_38 (= thr2.flag 0)))
(let ((.def_35 (not thr2.location.3)))
(let ((.def_32 (not thr2.location.2)))
(let ((.def_12 (not thr2.location.0)))
(let ((.def_10 (not thr2.location.1)))
(let ((.def_30 (and .def_10 .def_12)))
(let ((.def_33 (and .def_30 .def_32)))
(let ((.def_36 (and .def_33 .def_35)))
(let ((.def_39 (and .def_36 .def_38)))
(let ((.def_28 (not thr1.location.3)))
(let ((.def_25 (not thr1.location.2)))
(let ((.def_17 (not thr1.location.1)))
(let ((.def_15 (not thr1.location.0)))
(let ((.def_23 (and .def_15 .def_17)))
(let ((.def_26 (and .def_23 .def_25)))
(let ((.def_29 (and .def_26 .def_28)))
(let ((.def_40 (and .def_29 .def_39)))
(let ((.def_22 (= thr1.flag 0)))
(let ((.def_41 (and .def_22 .def_40)))
(let ((.def_18 (or .def_15 .def_17)))
(let ((.def_13 (or .def_10 .def_12)))
(let ((.def_19 (and .def_13 .def_18)))
(let ((.def_42 (and .def_19 .def_41)))
.def_42))))))))))))))))))))))) (state |thr2.location.1| |thr2.location.0| |thr1.location.0| |thr1.location.1| |thr1.flag| |thr1.location.2| |thr1.location.3| |thr2.location.2| |thr2.location.3| |thr2.flag|))))
(assert (forall ((|thr1.location.3.next| Bool) (|thr1.location.2.next| Bool) (|thr1.location.1.next| Bool) (|thr1.flag.next| Int) (|thr1.EVENT.0| Bool) (|thr1.location.0.next| Bool) (|thr2.location.1.next| Bool) (|thr2.location.0.next| Bool) (|thr2.location.2.next| Bool) (|thr2.location.3.next| Bool) (|thr2.flag.next| Int) (|thr2.EVENT.0| Bool) (|thr2.flag| Int) (|thr2.location.3| Bool) (|thr2.location.2| Bool) (|thr2.location.0| Bool) (|thr2.location.1| Bool) (|thr1.location.3| Bool) (|thr1.location.2| Bool) (|thr1.location.1| Bool) (|thr1.location.0| Bool) (|thr1.flag| Int)) (=> (and (state |thr2.location.1| |thr2.location.0| |thr1.location.0| |thr1.location.1| |thr1.flag| |thr1.location.2| |thr1.location.3| |thr2.location.2| |thr2.location.3| |thr2.flag|) (let ((.def_17 (not thr1.location.1)))
(let ((.def_15 (not thr1.location.0)))
(let ((.def_23 (and .def_15 .def_17)))
(let ((.def_129 (and .def_23 thr1.location.2)))
(let ((.def_342 (and thr1.location.3 .def_129)))
(let ((.def_343 (not .def_342)))
(let ((.def_335 (= thr2.flag 1)))
(let ((.def_294 (not thr1.location.3.next)))
(let ((.def_97 (and thr1.location.1.next thr1.location.2.next)))
(let ((.def_316 (and .def_97 .def_294)))
(let ((.def_339 (or .def_316 .def_335)))
(let ((.def_86 (not thr1.location.2.next)))
(let ((.def_107 (and thr1.location.1.next .def_86)))
(let ((.def_337 (and .def_107 .def_294)))
(let ((.def_336 (not .def_335)))
(let ((.def_338 (or .def_336 .def_337)))
(let ((.def_340 (and .def_338 .def_339)))
(let ((.def_65 (= thr1.flag thr1.flag.next)))
(let ((.def_341 (and .def_65 .def_340)))
(let ((.def_344 (or .def_341 .def_343)))
(let ((.def_78 (not thr1.EVENT.0)))
(let ((.def_345 (or .def_78 .def_344)))
(let ((.def_25 (not thr1.location.2)))
(let ((.def_26 (and .def_23 .def_25)))
(let ((.def_331 (and .def_26 thr1.location.3)))
(let ((.def_332 (not .def_331)))
(let ((.def_51 (not thr1.location.1.next)))
(let ((.def_49 (not thr1.location.0.next)))
(let ((.def_117 (and .def_49 .def_51)))
(let ((.def_126 (and thr1.location.2.next .def_117)))
(let ((.def_327 (and .def_126 .def_294)))
(let ((.def_324 (<= 3 thr2.flag)))
(let ((.def_328 (or .def_324 .def_327)))
(let ((.def_325 (not .def_324)))
(let ((.def_118 (and .def_86 .def_117)))
(let ((.def_119 (and thr1.location.3.next .def_118)))
(let ((.def_326 (or .def_119 .def_325)))
(let ((.def_329 (and .def_326 .def_328)))
(let ((.def_330 (and .def_65 .def_329)))
(let ((.def_333 (or .def_330 .def_332)))
(let ((.def_334 (or .def_78 .def_333)))
(let ((.def_346 (and .def_334 .def_345)))
(let ((.def_110 (and thr1.location.1 .def_25)))
(let ((.def_320 (and thr1.location.3 .def_110)))
(let ((.def_321 (not .def_320)))
(let ((.def_313 (= thr2.flag 4)))
(let ((.def_315 (not .def_313)))
(let ((.def_317 (or .def_315 .def_316)))
(let ((.def_108 (and thr1.location.3.next .def_107)))
(let ((.def_314 (or .def_108 .def_313)))
(let ((.def_318 (and .def_314 .def_317)))
(let ((.def_319 (and .def_65 .def_318)))
(let ((.def_322 (or .def_319 .def_321)))
(let ((.def_323 (or .def_78 .def_322)))
(let ((.def_347 (and .def_323 .def_346)))
(let ((.def_100 (and thr1.location.1 thr1.location.2)))
(let ((.def_309 (and thr1.location.3 .def_100)))
(let ((.def_310 (not .def_309)))
(let ((.def_69 (and thr1.location.0.next .def_51)))
(let ((.def_87 (and .def_69 .def_86)))
(let ((.def_305 (and .def_87 .def_294)))
(let ((.def_290 (<= 2 thr2.flag)))
(let ((.def_306 (or .def_290 .def_305)))
(let ((.def_303 (not .def_290)))
(let ((.def_98 (and thr1.location.3.next .def_97)))
(let ((.def_304 (or .def_98 .def_303)))
(let ((.def_307 (and .def_304 .def_306)))
(let ((.def_308 (and .def_65 .def_307)))
(let ((.def_311 (or .def_308 .def_310)))
(let ((.def_312 (or .def_78 .def_311)))
(let ((.def_348 (and .def_312 .def_347)))
(let ((.def_73 (and thr1.location.0 .def_17)))
(let ((.def_90 (and .def_25 .def_73)))
(let ((.def_299 (and thr1.location.3 .def_90)))
(let ((.def_300 (not .def_299)))
(let ((.def_70 (and thr1.location.2.next .def_69)))
(let ((.def_295 (and .def_70 .def_294)))
(let ((.def_289 (<= thr2.flag 3)))
(let ((.def_291 (and .def_289 .def_290)))
(let ((.def_296 (or .def_291 .def_295)))
(let ((.def_292 (not .def_291)))
(let ((.def_88 (and thr1.location.3.next .def_87)))
(let ((.def_293 (or .def_88 .def_292)))
(let ((.def_297 (and .def_293 .def_296)))
(let ((.def_298 (and .def_65 .def_297)))
(let ((.def_301 (or .def_298 .def_300)))
(let ((.def_302 (or .def_78 .def_301)))
(let ((.def_349 (and .def_302 .def_348)))
(let ((.def_32 (not thr2.location.2)))
(let ((.def_12 (not thr2.location.0)))
(let ((.def_10 (not thr2.location.1)))
(let ((.def_30 (and .def_10 .def_12)))
(let ((.def_33 (and .def_30 .def_32)))
(let ((.def_273 (and .def_33 thr2.location.3)))
(let ((.def_274 (not .def_273)))
(let ((.def_46 (not thr2.location.1.next)))
(let ((.def_44 (not thr2.location.0.next)))
(let ((.def_251 (and .def_44 .def_46)))
(let ((.def_252 (and thr2.location.2.next .def_251)))
(let ((.def_184 (not thr2.location.3.next)))
(let ((.def_269 (and .def_184 .def_252)))
(let ((.def_266 (<= 3 thr1.flag)))
(let ((.def_270 (or .def_266 .def_269)))
(let ((.def_267 (not .def_266)))
(let ((.def_180 (not thr2.location.2.next)))
(let ((.def_260 (and .def_180 .def_251)))
(let ((.def_261 (and thr2.location.3.next .def_260)))
(let ((.def_268 (or .def_261 .def_267)))
(let ((.def_271 (and .def_268 .def_270)))
(let ((.def_157 (= thr2.flag thr2.flag.next)))
(let ((.def_272 (and .def_157 .def_271)))
(let ((.def_275 (or .def_272 .def_274)))
(let ((.def_142 (not thr2.EVENT.0)))
(let ((.def_276 (or .def_142 .def_275)))
(let ((.def_35 (not thr2.location.3)))
(let ((.def_36 (and .def_33 .def_35)))
(let ((.def_263 (not .def_36)))
(let ((.def_259 (= thr2.flag.next 1)))
(let ((.def_262 (and .def_259 .def_261)))
(let ((.def_264 (or .def_262 .def_263)))
(let ((.def_265 (or .def_142 .def_264)))
(let ((.def_277 (and .def_265 .def_276)))
(let ((.def_245 (and .def_30 thr2.location.2)))
(let ((.def_255 (and .def_35 .def_245)))
(let ((.def_256 (not .def_255)))
(let ((.def_253 (and thr2.location.3.next .def_252)))
(let ((.def_250 (= thr2.flag.next 3)))
(let ((.def_254 (and .def_250 .def_253)))
(let ((.def_257 (or .def_254 .def_256)))
(let ((.def_258 (or .def_142 .def_257)))
(let ((.def_278 (and .def_258 .def_277)))
(let ((.def_246 (and thr2.location.3 .def_245)))
(let ((.def_247 (not .def_246)))
(let ((.def_238 (= thr1.flag 1)))
(let ((.def_200 (and thr2.location.1.next thr2.location.2.next)))
(let ((.def_223 (and .def_184 .def_200)))
(let ((.def_242 (or .def_223 .def_238)))
(let ((.def_219 (and thr2.location.1.next .def_180)))
(let ((.def_240 (and .def_184 .def_219)))
(let ((.def_239 (not .def_238)))
(let ((.def_241 (or .def_239 .def_240)))
(let ((.def_243 (and .def_241 .def_242)))
(let ((.def_244 (and .def_157 .def_243)))
(let ((.def_248 (or .def_244 .def_247)))
(let ((.def_249 (or .def_142 .def_248)))
(let ((.def_279 (and .def_249 .def_278)))
(let ((.def_227 (and thr2.location.1 .def_32)))
(let ((.def_234 (and .def_35 .def_227)))
(let ((.def_235 (not .def_234)))
(let ((.def_232 (= thr2.flag.next 2)))
(let ((.def_220 (and thr2.location.3.next .def_219)))
(let ((.def_233 (and .def_220 .def_232)))
(let ((.def_236 (or .def_233 .def_235)))
(let ((.def_237 (or .def_142 .def_236)))
(let ((.def_280 (and .def_237 .def_279)))
(let ((.def_228 (and thr2.location.3 .def_227)))
(let ((.def_229 (not .def_228)))
(let ((.def_218 (= thr1.flag 4)))
(let ((.def_222 (not .def_218)))
(let ((.def_224 (or .def_222 .def_223)))
(let ((.def_221 (or .def_218 .def_220)))
(let ((.def_225 (and .def_221 .def_224)))
(let ((.def_226 (and .def_157 .def_225)))
(let ((.def_230 (or .def_226 .def_229)))
(let ((.def_231 (or .def_142 .def_230)))
(let ((.def_281 (and .def_231 .def_280)))
(let ((.def_207 (and thr2.location.1 thr2.location.2)))
(let ((.def_214 (and .def_35 .def_207)))
(let ((.def_215 (not .def_214)))
(let ((.def_212 (= thr2.flag.next 4)))
(let ((.def_201 (and thr2.location.3.next .def_200)))
(let ((.def_213 (and .def_201 .def_212)))
(let ((.def_216 (or .def_213 .def_215)))
(let ((.def_217 (or .def_142 .def_216)))
(let ((.def_282 (and .def_217 .def_281)))
(let ((.def_208 (and thr2.location.3 .def_207)))
(let ((.def_209 (not .def_208)))
(let ((.def_160 (and thr2.location.0.next .def_46)))
(let ((.def_181 (and .def_160 .def_180)))
(let ((.def_203 (and .def_181 .def_184)))
(let ((.def_177 (<= 2 thr1.flag)))
(let ((.def_204 (or .def_177 .def_203)))
(let ((.def_199 (not .def_177)))
(let ((.def_202 (or .def_199 .def_201)))
(let ((.def_205 (and .def_202 .def_204)))
(let ((.def_206 (and .def_157 .def_205)))
(let ((.def_210 (or .def_206 .def_209)))
(let ((.def_211 (or .def_142 .def_210)))
(let ((.def_283 (and .def_211 .def_282)))
(let ((.def_164 (and .def_10 thr2.location.0)))
(let ((.def_189 (and .def_32 .def_164)))
(let ((.def_195 (and .def_35 .def_189)))
(let ((.def_196 (not .def_195)))
(let ((.def_182 (and thr2.location.3.next .def_181)))
(let ((.def_194 (and .def_157 .def_182)))
(let ((.def_197 (or .def_194 .def_196)))
(let ((.def_198 (or .def_142 .def_197)))
(let ((.def_284 (and .def_198 .def_283)))
(let ((.def_190 (and thr2.location.3 .def_189)))
(let ((.def_191 (not .def_190)))
(let ((.def_161 (and thr2.location.2.next .def_160)))
(let ((.def_185 (and .def_161 .def_184)))
(let ((.def_176 (<= thr1.flag 3)))
(let ((.def_178 (and .def_176 .def_177)))
(let ((.def_186 (or .def_178 .def_185)))
(let ((.def_179 (not .def_178)))
(let ((.def_183 (or .def_179 .def_182)))
(let ((.def_187 (and .def_183 .def_186)))
(let ((.def_188 (and .def_157 .def_187)))
(let ((.def_192 (or .def_188 .def_191)))
(let ((.def_193 (or .def_142 .def_192)))
(let ((.def_285 (and .def_193 .def_284)))
(let ((.def_165 (and thr2.location.2 .def_164)))
(let ((.def_172 (and .def_35 .def_165)))
(let ((.def_173 (not .def_172)))
(let ((.def_170 (= thr2.flag.next 0)))
(let ((.def_162 (and thr2.location.3.next .def_161)))
(let ((.def_171 (and .def_162 .def_170)))
(let ((.def_174 (or .def_171 .def_173)))
(let ((.def_175 (or .def_142 .def_174)))
(let ((.def_286 (and .def_175 .def_285)))
(let ((.def_166 (and thr2.location.3 .def_165)))
(let ((.def_167 (not .def_166)))
(let ((.def_163 (and .def_157 .def_162)))
(let ((.def_168 (or .def_163 .def_167)))
(let ((.def_169 (or .def_142 .def_168)))
(let ((.def_287 (and .def_169 .def_286)))
(let ((.def_154 (= thr2.location.0 thr2.location.0.next)))
(let ((.def_152 (= thr2.location.1 thr2.location.1.next)))
(let ((.def_150 (= thr2.location.2 thr2.location.2.next)))
(let ((.def_148 (= thr2.location.3 thr2.location.3.next)))
(let ((.def_151 (and .def_148 .def_150)))
(let ((.def_153 (and .def_151 .def_152)))
(let ((.def_155 (and .def_153 .def_154)))
(let ((.def_158 (and .def_155 .def_157)))
(let ((.def_159 (or thr2.EVENT.0 .def_158)))
(let ((.def_288 (and .def_159 .def_287)))
(let ((.def_350 (and .def_288 .def_349)))
(let ((.def_145 (or .def_78 .def_142)))
(let ((.def_143 (and .def_78 .def_142)))
(let ((.def_144 (not .def_143)))
(let ((.def_146 (and .def_144 .def_145)))
(let ((.def_351 (and .def_146 .def_350)))
(let ((.def_28 (not thr1.location.3)))
(let ((.def_130 (and .def_28 .def_129)))
(let ((.def_131 (not .def_130)))
(let ((.def_127 (and thr1.location.3.next .def_126)))
(let ((.def_125 (= thr1.flag.next 3)))
(let ((.def_128 (and .def_125 .def_127)))
(let ((.def_132 (or .def_128 .def_131)))
(let ((.def_133 (or .def_78 .def_132)))
(let ((.def_29 (and .def_26 .def_28)))
(let ((.def_121 (not .def_29)))
(let ((.def_116 (= thr1.flag.next 1)))
(let ((.def_120 (and .def_116 .def_119)))
(let ((.def_122 (or .def_120 .def_121)))
(let ((.def_123 (or .def_78 .def_122)))
(let ((.def_134 (and .def_123 .def_133)))
(let ((.def_111 (and .def_28 .def_110)))
(let ((.def_112 (not .def_111)))
(let ((.def_106 (= thr1.flag.next 2)))
(let ((.def_109 (and .def_106 .def_108)))
(let ((.def_113 (or .def_109 .def_112)))
(let ((.def_114 (or .def_78 .def_113)))
(let ((.def_135 (and .def_114 .def_134)))
(let ((.def_101 (and .def_28 .def_100)))
(let ((.def_102 (not .def_101)))
(let ((.def_96 (= thr1.flag.next 4)))
(let ((.def_99 (and .def_96 .def_98)))
(let ((.def_103 (or .def_99 .def_102)))
(let ((.def_104 (or .def_78 .def_103)))
(let ((.def_136 (and .def_104 .def_135)))
(let ((.def_91 (and .def_28 .def_90)))
(let ((.def_92 (not .def_91)))
(let ((.def_89 (and .def_65 .def_88)))
(let ((.def_93 (or .def_89 .def_92)))
(let ((.def_94 (or .def_78 .def_93)))
(let ((.def_137 (and .def_94 .def_136)))
(let ((.def_74 (and thr1.location.2 .def_73)))
(let ((.def_82 (and .def_28 .def_74)))
(let ((.def_83 (not .def_82)))
(let ((.def_80 (= thr1.flag.next 0)))
(let ((.def_71 (and thr1.location.3.next .def_70)))
(let ((.def_81 (and .def_71 .def_80)))
(let ((.def_84 (or .def_81 .def_83)))
(let ((.def_85 (or .def_78 .def_84)))
(let ((.def_138 (and .def_85 .def_137)))
(let ((.def_75 (and thr1.location.3 .def_74)))
(let ((.def_76 (not .def_75)))
(let ((.def_72 (and .def_65 .def_71)))
(let ((.def_77 (or .def_72 .def_76)))
(let ((.def_79 (or .def_77 .def_78)))
(let ((.def_139 (and .def_79 .def_138)))
(let ((.def_62 (= thr1.location.0 thr1.location.0.next)))
(let ((.def_60 (= thr1.location.1 thr1.location.1.next)))
(let ((.def_58 (= thr1.location.2 thr1.location.2.next)))
(let ((.def_56 (= thr1.location.3 thr1.location.3.next)))
(let ((.def_59 (and .def_56 .def_58)))
(let ((.def_61 (and .def_59 .def_60)))
(let ((.def_63 (and .def_61 .def_62)))
(let ((.def_66 (and .def_63 .def_65)))
(let ((.def_68 (or .def_66 thr1.EVENT.0)))
(let ((.def_140 (and .def_68 .def_139)))
(let ((.def_352 (and .def_140 .def_351)))
(let ((.def_52 (or .def_49 .def_51)))
(let ((.def_47 (or .def_44 .def_46)))
(let ((.def_53 (and .def_47 .def_52)))
(let ((.def_18 (or .def_15 .def_17)))
(let ((.def_13 (or .def_10 .def_12)))
(let ((.def_19 (and .def_13 .def_18)))
(let ((.def_54 (and .def_19 .def_53)))
(let ((.def_353 (and .def_54 .def_352)))
.def_353))))))))))))))))))))))))))))))))))))))))))))))))))))))))))))))))))))))))))))))))))))))))))))))))))))))))))))))))))))))))))))))))))))))))))))))))))))))))))))))))))))))))))))))))))))))))))))))))))))))))))))))))))))))))))))))))))))))))))))))))))))))))))))))))))))))))))))))))))))))))))))))))))))))))))))))))))))))))) (state |thr2.location.1.next| |thr2.location.0.next| |thr1.location.0.next| |thr1.location.1.next| |thr1.flag.next| |thr1.location.2.next| |thr1.location.3.next| |thr2.location.2.next| |thr2.location.3.next| |thr2.flag.next|))))
(assert (forall ((|thr1.location.3.next| Bool) (|thr1.location.2.next| Bool) (|thr1.location.1.next| Bool) (|thr1.flag.next| Int) (|thr1.EVENT.0| Bool) (|thr1.location.0.next| Bool) (|thr2.location.1.next| Bool) (|thr2.location.0.next| Bool) (|thr2.location.2.next| Bool) (|thr2.location.3.next| Bool) (|thr2.flag.next| Int) (|thr2.EVENT.0| Bool) (|thr2.flag| Int) (|thr2.location.3| Bool) (|thr2.location.2| Bool) (|thr2.location.0| Bool) (|thr2.location.1| Bool) (|thr1.location.3| Bool) (|thr1.location.2| Bool) (|thr1.location.1| Bool) (|thr1.location.0| Bool) (|thr1.flag| Int)) (=> (state |thr2.location.1| |thr2.location.0| |thr1.location.0| |thr1.location.1| |thr1.flag| |thr1.location.2| |thr1.location.3| |thr2.location.2| |thr2.location.3| |thr2.flag|) (let ((.def_10 (not thr2.location.1)))
(let ((.def_164 (and .def_10 thr2.location.0)))
(let ((.def_32 (not thr2.location.2)))
(let ((.def_189 (and .def_32 .def_164)))
(let ((.def_35 (not thr2.location.3)))
(let ((.def_195 (and .def_35 .def_189)))
(let ((.def_17 (not thr1.location.1)))
(let ((.def_73 (and thr1.location.0 .def_17)))
(let ((.def_25 (not thr1.location.2)))
(let ((.def_90 (and .def_25 .def_73)))
(let ((.def_28 (not thr1.location.3)))
(let ((.def_91 (and .def_28 .def_90)))
(let ((.def_354 (and .def_91 .def_195)))
(let ((.def_355 (not .def_354)))
.def_355)))))))))))))))))
(check-sat)
